************************************************************************
file with basedata            : n/a
initial value random generator: n/a
************************************************************************
projects                      :  1
jobs (incl. supersource/sink ):  122
horizon                       :  639
RESOURCES
  - renewable                 :  4   R
  - nonrenewable              :  0   N
  - doubly constrained        :  0   D
************************************************************************
PROJECT INFORMATION:
pronr.  #jobs rel.date duedate tardcost  MPM-Time
    1    120      0       79        5       79
************************************************************************
PRECEDENCE RELATIONS:
jobnr.    #modes  #successors   successors
   1        1          3           2   3   4
   2        1          1           7
   3        1          3          13  39  47
   4        1          3           5   6   8
   5        1          2          22  25
   6        1          3          10  16  30
   7        1          3           9  21  61
   8        1          2          14  18
   9        1          3          11  19  35
  10        1          1          49
  11        1          3          12  15  24
  12        1          1         120
  13        1          3          23  29  83
  14        1          2          20  87
  15        1          2          28  49
  16        1          1          17
  17        1          1          31
  18        1          2          27  32
  19        1          2          33  34
  20        1          3          55  66 101
  21        1          1          53
  22        1          2          36  54
  23        1          3          45  94 100
  24        1          1          88
  25        1          2          26  98
  26        1          1          81
  27        1          2          43 114
  28        1          1          73
  29        1          2          40  66
  30        1          1          37
  31        1          2          77  91
  32        1          3          38  69  80
  33        1          2          92  97
  34        1          2          51  52
  35        1          1          58
  36        1          2          46  56
  37        1          3          62  74  76
  38        1          3          40  44  70
  39        1          1          53
  40        1          2          41  79
  41        1          2          42  78
  42        1          2          72 114
  43        1          3          50  75  89
  44        1          1         107
  45        1          2          48  67
  46        1          1          66
  47        1          3          59  64  65
  48        1          2          56  96
  49        1          2          86 106
  50        1          1          71
  51        1          1         121
  52        1          1         102
  53        1          3          57  63  97
  54        1          1          60
  55        1          1          72
  56        1          1          73
  57        1          1          67
  58        1          1         116
  59        1          1          71
  60        1          1          68
  61        1          2          89 100
  62        1          2          82 109
  63        1          2          69  73
  64        1          1          96
  65        1          1          85
  66        1          1         111
  67        1          1          71
  68        1          1         105
  69        1          1          95
  70        1          1          84
  71        1          1         118
  72        1          1         109
  73        1          1          78
  74        1          2          81  85
  75        1          2          79 103
  76        1          1          93
  77        1          1         110
  78        1          3          90 112 117
  79        1          1         102
  80        1          1         106
  81        1          1          99
  82        1          1         118
  83        1          1         107
  84        1          2          92 103
  85        1          1         104
  86        1          2         105 108
  87        1          1         115
  88        1          1          90
  89        1          1         113
  90        1          1         104
  91        1          1          98
  92        1          1         100
  93        1          1         112
  94        1          1         102
  95        1          1         103
  96        1          1         101
  97        1          1         110
  98        1          1         101
  99        1          1         111
 100        1          1         113
 101        1          1         114
 102        1          1         111
 103        1          1         116
 104        1          1         107
 105        1          1         118
 106        1          1         116
 107        1          1         109
 108        1          1         110
 109        1          1         121
 110        1          2         112 113
 111        1          1         119
 112        1          1         120
 113        1          1         115
 114        1          1         119
 115        1          1         117
 116        1          1         121
 117        1          1         120
 118        1          1         119
 119        1          1         122
 120        1          1         122
 121        1          1         122
 122        1          0        
************************************************************************
REQUESTS/DURATIONS:
jobnr. mode duration  R 1  R 2  R 3  R 4
------------------------------------------------------------------------
  1      1     0    
  2      1     2       0   0
                       5   3
                       0   0
                       0   0
  3      1     9       7   7   7   7   7   7   7   7   7
                       0   0   0   0   0   0   0   0   0
                       0   0   0   0   0   0   0   0   0
                       0   0   0   0   0   0   0   0   0
  4      1     1       0
                       2
                       6
                       2
  5      1     2       0   0
                       0   0
                       5   5
                       0   0
  6      1     2       8   8
                       0   0
                       0   0
                       0   0
  7      1     2       1   1
                       4   4
                       3   3
                       0   0
  8      1     8       0   0   0   0   0   0   0   0
                       0   0   0   0   0   0   0   0
                       0   0   0   0   0   0   0   0
                       3   3   3   3   2   3   3   3
  9      1     4       9   9   9   9
                       0   0   0   0
                       1   1   1   1
                       0   0   0   0
 10      1     6       3   3   2   3   2   3
                       0   0   0   0   0   0
                       0   0   0   0   0   0
                       4   4   2   4   2   4
 11      1     1       8
                       0
                       0
                       0
 12      1     8       0   0   0   0   0   0   0   0
                       0   0   0   0   0   0   0   0
                       7   7   7   7   7   7   7   7
                       4   4   4   4   4   4   4   4
 13      1     8       0   0   0   0   0   0   0   0
                       0   0   0   0   0   0   0   0
                      10   5  10   5  10  10  10  10
                       0   0   0   0   0   0   0   0
 14      1     7       6   6   6   6   6   6   6
                       0   0   0   0   0   0   0
                       7   7   7   7   7   7   7
                       0   0   0   0   0   0   0
 15      1     1       0
                       0
                       0
                       5
 16      1     9       2   2   2   2   2   2   2   2   2
                       0   0   0   0   0   0   0   0   0
                       5   5   5   5   5   5   5   5   5
                       2   2   2   2   2   2   2   2   2
 17      1     5       0   0   0   0   0
                       9   9   9   9   9
                       1   1   1   1   1
                       0   0   0   0   0
 18      1     9       0   0   0   0   0   0   0   0   0
                       5  10  10  10  10  10  10  10  10
                       0   0   0   0   0   0   0   0   0
                       0   0   0   0   0   0   0   0   0
 19      1     1       9
                       1
                       6
                       2
 20      1     7       7   7   7   7   7   7   7
                       6   6   6   6   6   6   6
                       6   6   6   6   6   6   6
                       0   0   0   0   0   0   0
 21      1     4       4   4   4   4
                       0   0   0   0
                       0   0   0   0
                       0   0   0   0
 22      1     7       0   0   0   0   0   0   0
                       4   4   4   4   4   4   4
                       0   0   0   0   0   0   0
                       0   0   0   0   0   0   0
 23      1     2       2   1
                       8   4
                       0   0
                       0   0
 24      1     9       0   0   0   0   0   0   0   0   0
                       1   1   1   1   1   1   1   1   1
                       3   3   3   3   3   3   3   3   3
                       0   0   0   0   0   0   0   0   0
 25      1     5       0   0   0   0   0
                       0   0   0   0   0
                       3   6   6   6   6
                       3   6   6   6   6
 26      1     5       0   0   0   0   0
                       0   0   0   0   0
                       0   0   0   0   0
                       5   5   5   5   3
 27      1     1       0
                       0
                       0
                       8
 28      1     2       0   0
                       4   4
                       0   0
                       0   0
 29      1     5       0   0   0   0   0
                       6   6   6   6   6
                       8   8   8   8   8
                       0   0   0   0   0
 30      1     4       4   4   4   4
                       7   7   7   7
                       0   0   0   0
                       7   7   7   7
 31      1     2       0   0
                      10  10
                       0   0
                       1   1
 32      1     6       0   0   0   0   0   0
                       0   0   0   0   0   0
                       1   1   1   1   1   1
                       8   8   8   8   8   8
 33      1     7       3   3   3   3   3   3   3
                       0   0   0   0   0   0   0
                       8   8   8   8   8   8   8
                       3   3   3   3   3   3   3
 34      1     4       7   7   7   7
                       7   7   7   7
                       0   0   0   0
                       0   0   0   0
 35      1     6       4   4   4   2   2   4
                       0   0   0   0   0   0
                       5   5   5   3   3   5
                       0   0   0   0   0   0
 36      1     4       0   0   0   0
                       0   0   0   0
                       4   4   4   4
                       8   8   8   8
 37      1    10       2   2   2   2   2   2   2   2   2   2
                       9   9   9   9   9   9   9   9   9   9
                       6   6   6   6   6   6   6   6   6   6
                       1   1   1   1   1   1   1   1   1   1
 38      1     8       0   0   0   0   0   0   0   0
                       4   4   2   4   4   4   4   4
                       0   0   0   0   0   0   0   0
                       0   0   0   0   0   0   0   0
 39      1     1       5
                      10
                       8
                      10
 40      1     6       0   0   0   0   0   0
                       2   2   2   2   2   2
                       9   9   9   9   9   9
                       3   3   3   3   3   3
 41      1     8       0   0   0   0   0   0   0   0
                       0   0   0   0   0   0   0   0
                       7   7   7   7   7   7   7   7
                       0   0   0   0   0   0   0   0
 42      1     4       3   6   6   6
                       2   3   3   3
                       3   5   5   5
                       0   0   0   0
 43      1     5       0   0   0   0   0
                       0   0   0   0   0
                       0   0   0   0   0
                       1   1   1   1   1
 44      1     9       6   6   6   6   6   6   6   6   6
                       0   0   0   0   0   0   0   0   0
                       0   0   0   0   0   0   0   0   0
                       0   0   0   0   0   0   0   0   0
 45      1     1       0
                       2
                       0
                       2
 46      1     9       7   7   7   7   7   4   4   7   7
                       0   0   0   0   0   0   0   0   0
                       0   0   0   0   0   0   0   0   0
                       7   7   7   7   7   4   4   7   7
 47      1     6       0   0   0   0   0   0
                       8   4   8   8   8   8
                       0   0   0   0   0   0
                       4   2   4   4   4   4
 48      1     8       1   2   2   2   2   2   2   2
                       1   1   1   1   1   1   1   1
                       0   0   0   0   0   0   0   0
                       5   9   9   9   9   9   9   9
 49      1     1       0
                       5
                       0
                       0
 50      1     9       5   5   3   5   3   5   3   5   5
                       0   0   0   0   0   0   0   0   0
                       7   7   4   7   4   7   4   7   7
                       0   0   0   0   0   0   0   0   0
 51      1     4       4   4   4   4
                       3   3   3   3
                       2   2   2   2
                       0   0   0   0
 52      1     7       5   5   5   5   3   3   3
                       7   7   7   7   4   4   4
                       0   0   0   0   0   0   0
                       4   4   4   4   2   2   2
 53      1     3       0   0   0
                       0   0   0
                       1   1   1
                       1   1   1
 54      1     5       8   4   8   4   8
                       0   0   0   0   0
                       0   0   0   0   0
                       0   0   0   0   0
 55      1     1      10
                       2
                       4
                       0
 56      1     7       7   7   7   7   7   7   7
                       0   0   0   0   0   0   0
                       7   7   7   7   7   7   7
                       3   3   3   3   3   3   3
 57      1    10       6   6   6   6   6   6   6   6   6   6
                       0   0   0   0   0   0   0   0   0   0
                       0   0   0   0   0   0   0   0   0   0
                       0   0   0   0   0   0   0   0   0   0
 58      1     8       5   5   5   5   5   5   5   5
                       9   9   9   9   9   9   9   9
                       0   0   0   0   0   0   0   0
                       0   0   0   0   0   0   0   0
 59      1     8       0   0   0   0   0   0   0   0
                       0   0   0   0   0   0   0   0
                       7   7   4   7   7   7   7   7
                       0   0   0   0   0   0   0   0
 60      1     3       7   7   7
                       0   0   0
                       7   7   7
                       6   6   6
 61      1     4       0   0   0   0
                       3   2   3   3
                       0   0   0   0
                       0   0   0   0
 62      1     7       3   3   3   3   2   2   2
                       7   7   7   7   4   4   4
                       0   0   0   0   0   0   0
                       0   0   0   0   0   0   0
 63      1     6      10  10  10  10  10  10
                       0   0   0   0   0   0
                       2   2   2   2   2   2
                       6   6   6   6   6   6
 64      1     6       0   0   0   0   0   0
                       6   6   6   6   6   6
                      10  10  10  10  10  10
                       0   0   0   0   0   0
 65      1     6       0   0   0   0   0   0
                      10  10  10  10  10   5
                       5   5   5   5   5   3
                       0   0   0   0   0   0
 66      1     8       9   9   9   9   9   9   9   9
                       0   0   0   0   0   0   0   0
                       0   0   0   0   0   0   0   0
                       5   5   5   5   5   5   5   5
 67      1     7       1   1   1   1   1   1   1
                       0   0   0   0   0   0   0
                       0   0   0   0   0   0   0
                       0   0   0   0   0   0   0
 68      1    10       0   0   0   0   0   0   0   0   0   0
                       0   0   0   0   0   0   0   0   0   0
                       5   5   5   5   5   5   5   5   5   3
                       5   5   5   5   5   5   5   5   5   3
 69      1     1       0
                       9
                       2
                       1
 70      1     1       0
                       2
                       1
                       1
 71      1     2       7   7
                       4   4
                       0   0
                       0   0
 72      1     2       0   0
                       8   8
                       4   4
                       0   0
 73      1     2       7   7
                       8   8
                       6   6
                       0   0
 74      1     6       0   0   0   0   0   0
                       3   3   3   3   3   3
                       7   7   7   7   7   7
                       9   9   9   9   9   9
 75      1     8       0   0   0   0   0   0   0   0
                       6   6   6   6   6   6   6   3
                       0   0   0   0   0   0   0   0
                       4   4   4   4   4   4   4   2
 76      1     5       2   2   2   1   2
                       0   0   0   0   0
                       3   3   3   2   3
                       0   0   0   0   0
 77      1    10       0   0   0   0   0   0   0   0   0   0
                       0   0   0   0   0   0   0   0   0   0
                       0   0   0   0   0   0   0   0   0   0
                       5   5   5   5   5   3   5   5   5   5
 78      1     4       5   5   5   5
                       5   5   5   5
                       0   0   0   0
                       4   4   4   4
 79      1     1       0
                       0
                       7
                       0
 80      1     1      10
                       0
                       1
                       0
 81      1     9       0   0   0   0   0   0   0   0   0
                       6   6   6   6   6   6   6   6   6
                       0   0   0   0   0   0   0   0   0
                       3   3   3   3   3   3   3   3   3
 82      1     2       0   0
                       0   0
                       7   7
                       0   0
 83      1     7       5   5   5   5   5   5   5
                       0   0   0   0   0   0   0
                       1   1   1   1   1   1   1
                       0   0   0   0   0   0   0
 84      1     5       4   4   4   4   4
                       0   0   0   0   0
                       0   0   0   0   0
                       7   7   7   7   7
 85      1     9       7   7   7   7   7   7   7   7   7
                       0   0   0   0   0   0   0   0   0
                       0   0   0   0   0   0   0   0   0
                       6   6   6   6   6   6   6   6   6
 86      1     6      10  10  10  10  10  10
                       9   9   9   9   9   9
                       0   0   0   0   0   0
                       3   3   3   3   3   3
 87      1     9       0   0   0   0   0   0   0   0   0
                       0   0   0   0   0   0   0   0   0
                       6   6   6   6   6   6   6   6   6
                      10  10  10  10  10  10  10  10  10
 88      1     2       3   3
                       0   0
                       2   2
                       4   4
 89      1     5       0   0   0   0   0
                       3   3   3   3   3
                       0   0   0   0   0
                       0   0   0   0   0
 90      1     2       6   3
                       8   4
                       0   0
                       0   0
 91      1     8       6   6   6   6   6   6   6   6
                       6   6   6   6   6   6   6   6
                       9   9   9   9   9   9   9   9
                       0   0   0   0   0   0   0   0
 92      1     3       0   0   0
                       3   3   2
                       0   0   0
                       0   0   0
 93      1     3       0   0   0
                       0   0   0
                      10  10  10
                       8   8   8
 94      1     5       0   0   0   0   0
                       5  10  10  10  10
                       0   0   0   0   0
                       5   9   9   9   9
 95      1     5       0   0   0   0   0
                       0   0   0   0   0
                       0   0   0   0   0
                       1   1   1   1   1
 96      1     9       0   0   0   0   0   0   0   0   0
                       0   0   0   0   0   0   0   0   0
                       0   0   0   0   0   0   0   0   0
                       5   5   5   5   5   3   3   5   5
 97      1     8       0   0   0   0   0   0   0   0
                       1   1   1   1   1   1   1   1
                       0   0   0   0   0   0   0   0
                       0   0   0   0   0   0   0   0
 98      1    10       1   1   1   1   1   1   1   1   1   1
                       7   7   7   7   7   4   7   7   7   7
                       0   0   0   0   0   0   0   0   0   0
                       2   2   2   2   2   1   2   2   2   2
 99      1     8       0   0   0   0   0   0   0   0
                       0   0   0   0   0   0   0   0
                       8   8   8   8   8   8   8   4
                       3   3   3   3   3   3   3   2
100      1     9       0   0   0   0   0   0   0   0   0
                       9   9   9   9   9   9   9   9   9
                       7   7   7   7   7   7   7   7   7
                       0   0   0   0   0   0   0   0   0
101      1     6       0   0   0   0   0   0
                       1   1   1   1   1   1
                       0   0   0   0   0   0
                       5   5   5   5   5   3
102      1     4       0   0   0   0
                       9   9   9   9
                       6   6   6   6
                       0   0   0   0
103      1     9       7   7   7   7   7   7   7   4   7
                       0   0   0   0   0   0   0   0   0
                       0   0   0   0   0   0   0   0   0
                       1   1   1   1   1   1   1   1   1
104      1     4       3   3   3   3
                       8   8   8   8
                       7   7   7   7
                       0   0   0   0
105      1    10       0   0   0   0   0   0   0   0   0   0
                       2   2   2   2   2   2   2   2   2   2
                       5   5   5   5   5   5   5   5   5   5
                       0   0   0   0   0   0   0   0   0   0
106      1     2       0   0
                       7   7
                       7   7
                       0   0
107      1     8       0   0   0   0   0   0   0   0
                       0   0   0   0   0   0   0   0
                       7   7   7   4   7   7   7   7
                       0   0   0   0   0   0   0   0
108      1    10       1   1   2   2   2   2   2   2   2   2
                       3   3   6   6   6   6   6   6   6   6
                       1   1   2   2   2   2   2   2   2   2
                       0   0   0   0   0   0   0   0   0   0
109      1     5       5   5   5   5   5
                       0   0   0   0   0
                       2   2   2   2   2
                      10  10  10  10  10
110      1     1       6
                       0
                       7
                       0
111      1     2       2   3
                       4   8
                       0   0
                       0   0
112      1     3       1   1   1
                       0   0   0
                       1   1   1
                       9   9   9
113      1     8       0   0   0   0   0   0   0   0
                       2   2   2   2   2   2   2   2
                       3   3   3   3   3   3   3   3
                       2   2   2   2   2   2   2   2
114      1     1       5
                       0
                       0
                       3
115      1     1       4
                       0
                       0
                       0
116      1     1       5
                       0
                       8
                       0
117      1     9       0   0   0   0   0   0   0   0   0
                       2   2   2   2   2   2   2   2   2
                       2   2   2   2   2   2   2   2   2
                       6   6   6   6   6   6   6   6   6
118      1    10       4   4   4   4   4   4   4   4   4   2
                       0   0   0   0   0   0   0   0   0   0
                       0   0   0   0   0   0   0   0   0   0
                       4   4   4   4   4   4   4   4   4   2
119      1     7       0   0   0   0   0   0   0
                       0   0   0   0   0   0   0
                       9   9   9   9   9   5   9
                       0   0   0   0   0   0   0
120      1     1       0
                      10
                       6
                      10
121      1    10       0   0   0   0   0   0   0   0   0   0
                       0   0   0   0   0   0   0   0   0   0
                       0   0   0   0   0   0   0   0   0   0
                       4   4   4   4   4   4   4   4   4   4
122      1     0    
************************************************************************
RESOURCEAVAILABILITIES:
  R 1  R 2  R 3  R 4

  11  21  21  21  21  21  21  21  21  21  21  21  21  21  21  21  21  21  21  21  21  21  21  21  21  21  21  21  21  11  21  11  21  21  21  21  11  21  21  21  21  21  11  21  21  21  21  21  21  21  21  21  21  21  11  21  21  21  21  21  21  21  21  21  21  21  21  21  21  21  11  21  21  21  21  21  21  21  21  21  21  21  21  21  21  21  21  21  21  21  21  21  21  21  21  21  21  21  21  21  21  21  21  21  21  21  21  21  21  21  21  21  21  21  21  11  21  21  21  11  21  21  11  21  21  21  21  21  21  21  21  21  21  21  21  21  21  11  21  21  21  21  11  21  21  21  21  21  21  21  21  21  21  21  11  21  21  21  21  21  21  21  21  21  21  21  21  21  11  21  11  21  21  21  21  21  21  21  21  21  21  21  21  21  21  21  21  21  21  11  21  11  21  21  21  21  21  21  21  21  21  21  21  21  21  21  21  11  21  21  21  21  21  21  11  21  21  21  21  21  21  21  21  21  21  21  11  21  21  21  11  21  11  21  21  21  21  21  21  21  21  11  21  21  21  21  21  21  21  21  21  11  21  21  21  21  21  21  21  21  21  21  21  21  21  21  21  21  11  21  21  21  11  21  21  21  21  21  21  21  21  21  21  21  21  21  21  21  21  21  21  11  21  21  11  21  21  21  11  21  21  21  21  21  21  21  21  21  21  21  21  21  21  21  21  21  21  21  21  21  21  21  21  21  21  21  11  21  21  21  21  21  21  21  21  21  21  21  21  21  21  21  21  21  21  11  21  21  21  21  21  11  21  21  21  21  21  21  21  21  21  21  21  21  11  11  21  21  21  21  21  21  21  11  21  21  21  11  21  21  21  21  21  21  21  21  21  21  21  21  21  21  21  21  21  21  21  21  21  21  11  21  21  21  11  21  11  21  21  21  21  11  21  21  21  21  21  21  21  21  21  21  21  21  21  21  21  21  21  21  21  21  21  21  21  21  21  21  21  21  21  11  21  21  11  21  21  21  21  21  21  21  11  21  21  21  21  21  21  21  21  21  21  21  21  21  21  21  11  21  21  21  21  21  21  11  21  21  11  21  21  21  21  21  21  21  11  21  21  21  21  21  21  21  21  21  11  21  21  21  21  11  21  21  21  21  21  21  21  21  21  21  21  21  21  21  21  21  21  21  11  21  21  21  21  21  21  21  21  21  21  21  21  11  21  21  21  21  21  21  21  21  21  21  21  21  21  21  21  21  21  21  21  21  21  21  21  21  21  21  21  21  21  21  21  21  21  21  21  21  21  21  21  21  21  21  21  21  21  21  21  21  21  11  21  21  21  21  21  21  21  21  21  21  21  11  21  21  11  21  21  21  11  21  21  21  21  21  11  21  21  21  21  21  21  21  21  21  21  21  21  11  21  21  21  21  21  21  21  21  21  21  11  21  21  21  21  11  21

  13  26  26  26  26  26  26  26  26  26  26  26  26  26  26  26  26  26  26  26  26  26  26  26  26  26  26  26  26  13  26  13  26  26  26  26  13  26  26  26  26  26  13  26  26  26  26  26  26  26  26  26  26  26  13  26  26  26  26  26  26  26  26  26  26  26  26  26  26  26  13  26  26  26  26  26  26  26  26  26  26  26  26  26  26  26  26  26  26  26  26  26  26  26  26  26  26  26  26  26  26  26  26  26  26  26  26  26  26  26  26  26  26  26  26  13  26  26  26  13  26  26  13  26  26  26  26  26  26  26  26  26  26  26  26  26  26  13  26  26  26  26  13  26  26  26  26  26  26  26  26  26  26  26  13  26  26  26  26  26  26  26  26  26  26  26  26  26  13  26  13  26  26  26  26  26  26  26  26  26  26  26  26  26  26  26  26  26  26  13  26  13  26  26  26  26  26  26  26  26  26  26  26  26  26  26  26  13  26  26  26  26  26  26  13  26  26  26  26  26  26  26  26  26  26  26  13  26  26  26  13  26  13  26  26  26  26  26  26  26  26  13  26  26  26  26  26  26  26  26  26  13  26  26  26  26  26  26  26  26  26  26  26  26  26  26  26  26  13  26  26  26  13  26  26  26  26  26  26  26  26  26  26  26  26  26  26  26  26  26  26  13  26  26  13  26  26  26  13  26  26  26  26  26  26  26  26  26  26  26  26  26  26  26  26  26  26  26  26  26  26  26  26  26  26  26  13  26  26  26  26  26  26  26  26  26  26  26  26  26  26  26  26  26  26  13  26  26  26  26  26  13  26  26  26  26  26  26  26  26  26  26  26  26  13  13  26  26  26  26  26  26  26  13  26  26  26  13  26  26  26  26  26  26  26  26  26  26  26  26  26  26  26  26  26  26  26  26  26  26  13  26  26  26  13  26  13  26  26  26  26  13  26  26  26  26  26  26  26  26  26  26  26  26  26  26  26  26  26  26  26  26  26  26  26  26  26  26  26  26  26  13  26  26  13  26  26  26  26  26  26  26  13  26  26  26  26  26  26  26  26  26  26  26  26  26  26  26  13  26  26  26  26  26  26  13  26  26  13  26  26  26  26  26  26  26  13  26  26  26  26  26  26  26  26  26  13  26  26  26  26  13  26  26  26  26  26  26  26  26  26  26  26  26  26  26  26  26  26  26  13  26  26  26  26  26  26  26  26  26  26  26  26  13  26  26  26  26  26  26  26  26  26  26  26  26  26  26  26  26  26  26  26  26  26  26  26  26  26  26  26  26  26  26  26  26  26  26  26  26  26  26  26  26  26  26  26  26  26  26  26  26  26  13  26  26  26  26  26  26  26  26  26  26  26  13  26  26  13  26  26  26  13  26  26  26  26  26  13  26  26  26  26  26  26  26  26  26  26  26  26  13  26  26  26  26  26  26  26  26  26  26  13  26  26  26  26  13  26

  12  23  23  23  23  23  23  23  23  23  23  23  23  23  23  23  23  23  23  23  23  23  23  23  23  23  23  23  23  12  23  12  23  23  23  23  12  23  23  23  23  23  12  23  23  23  23  23  23  23  23  23  23  23  12  23  23  23  23  23  23  23  23  23  23  23  23  23  23  23  12  23  23  23  23  23  23  23  23  23  23  23  23  23  23  23  23  23  23  23  23  23  23  23  23  23  23  23  23  23  23  23  23  23  23  23  23  23  23  23  23  23  23  23  23  12  23  23  23  12  23  23  12  23  23  23  23  23  23  23  23  23  23  23  23  23  23  12  23  23  23  23  12  23  23  23  23  23  23  23  23  23  23  23  12  23  23  23  23  23  23  23  23  23  23  23  23  23  12  23  12  23  23  23  23  23  23  23  23  23  23  23  23  23  23  23  23  23  23  12  23  12  23  23  23  23  23  23  23  23  23  23  23  23  23  23  23  12  23  23  23  23  23  23  12  23  23  23  23  23  23  23  23  23  23  23  12  23  23  23  12  23  12  23  23  23  23  23  23  23  23  12  23  23  23  23  23  23  23  23  23  12  23  23  23  23  23  23  23  23  23  23  23  23  23  23  23  23  12  23  23  23  12  23  23  23  23  23  23  23  23  23  23  23  23  23  23  23  23  23  23  12  23  23  12  23  23  23  12  23  23  23  23  23  23  23  23  23  23  23  23  23  23  23  23  23  23  23  23  23  23  23  23  23  23  23  12  23  23  23  23  23  23  23  23  23  23  23  23  23  23  23  23  23  23  12  23  23  23  23  23  12  23  23  23  23  23  23  23  23  23  23  23  23  12  12  23  23  23  23  23  23  23  12  23  23  23  12  23  23  23  23  23  23  23  23  23  23  23  23  23  23  23  23  23  23  23  23  23  23  12  23  23  23  12  23  12  23  23  23  23  12  23  23  23  23  23  23  23  23  23  23  23  23  23  23  23  23  23  23  23  23  23  23  23  23  23  23  23  23  23  12  23  23  12  23  23  23  23  23  23  23  12  23  23  23  23  23  23  23  23  23  23  23  23  23  23  23  12  23  23  23  23  23  23  12  23  23  12  23  23  23  23  23  23  23  12  23  23  23  23  23  23  23  23  23  12  23  23  23  23  12  23  23  23  23  23  23  23  23  23  23  23  23  23  23  23  23  23  23  12  23  23  23  23  23  23  23  23  23  23  23  23  12  23  23  23  23  23  23  23  23  23  23  23  23  23  23  23  23  23  23  23  23  23  23  23  23  23  23  23  23  23  23  23  23  23  23  23  23  23  23  23  23  23  23  23  23  23  23  23  23  23  12  23  23  23  23  23  23  23  23  23  23  23  12  23  23  12  23  23  23  12  23  23  23  23  23  12  23  23  23  23  23  23  23  23  23  23  23  23  12  23  23  23  23  23  23  23  23  23  23  12  23  23  23  23  12  23

  11  22  22  22  22  22  22  22  22  22  22  22  22  22  22  22  22  22  22  22  22  22  22  22  22  22  22  22  22  11  22  11  22  22  22  22  11  22  22  22  22  22  11  22  22  22  22  22  22  22  22  22  22  22  11  22  22  22  22  22  22  22  22  22  22  22  22  22  22  22  11  22  22  22  22  22  22  22  22  22  22  22  22  22  22  22  22  22  22  22  22  22  22  22  22  22  22  22  22  22  22  22  22  22  22  22  22  22  22  22  22  22  22  22  22  11  22  22  22  11  22  22  11  22  22  22  22  22  22  22  22  22  22  22  22  22  22  11  22  22  22  22  11  22  22  22  22  22  22  22  22  22  22  22  11  22  22  22  22  22  22  22  22  22  22  22  22  22  11  22  11  22  22  22  22  22  22  22  22  22  22  22  22  22  22  22  22  22  22  11  22  11  22  22  22  22  22  22  22  22  22  22  22  22  22  22  22  11  22  22  22  22  22  22  11  22  22  22  22  22  22  22  22  22  22  22  11  22  22  22  11  22  11  22  22  22  22  22  22  22  22  11  22  22  22  22  22  22  22  22  22  11  22  22  22  22  22  22  22  22  22  22  22  22  22  22  22  22  11  22  22  22  11  22  22  22  22  22  22  22  22  22  22  22  22  22  22  22  22  22  22  11  22  22  11  22  22  22  11  22  22  22  22  22  22  22  22  22  22  22  22  22  22  22  22  22  22  22  22  22  22  22  22  22  22  22  11  22  22  22  22  22  22  22  22  22  22  22  22  22  22  22  22  22  22  11  22  22  22  22  22  11  22  22  22  22  22  22  22  22  22  22  22  22  11  11  22  22  22  22  22  22  22  11  22  22  22  11  22  22  22  22  22  22  22  22  22  22  22  22  22  22  22  22  22  22  22  22  22  22  11  22  22  22  11  22  11  22  22  22  22  11  22  22  22  22  22  22  22  22  22  22  22  22  22  22  22  22  22  22  22  22  22  22  22  22  22  22  22  22  22  11  22  22  11  22  22  22  22  22  22  22  11  22  22  22  22  22  22  22  22  22  22  22  22  22  22  22  11  22  22  22  22  22  22  11  22  22  11  22  22  22  22  22  22  22  11  22  22  22  22  22  22  22  22  22  11  22  22  22  22  11  22  22  22  22  22  22  22  22  22  22  22  22  22  22  22  22  22  22  11  22  22  22  22  22  22  22  22  22  22  22  22  11  22  22  22  22  22  22  22  22  22  22  22  22  22  22  22  22  22  22  22  22  22  22  22  22  22  22  22  22  22  22  22  22  22  22  22  22  22  22  22  22  22  22  22  22  22  22  22  22  22  11  22  22  22  22  22  22  22  22  22  22  22  11  22  22  11  22  22  22  11  22  22  22  22  22  11  22  22  22  22  22  22  22  22  22  22  22  22  11  22  22  22  22  22  22  22  22  22  22  11  22  22  22  22  11  22

************************************************************************
